110
0 18 8 35 9 85 96 100 80 72 
46 19 99 5 73 42 60 14 101 64 
94 49 65 6 22 70 12 32 4 68 
108 33 107 45 109 92 23 48 36 53 
39 90 34 67 102 71 79 27 91 28 
15 37 89 61 11 81 57 2 58 54 
82 41 66 30 98 83 3 86 76 69 
26 103 24 50 21 97 77 95 29 87 
31 51 10 55 20 16 1 106 93 88 
84 7 43 52 63 56 17 75 44 40 
78 105 25 74 13 62 47 104 38 59 
